Unidireccional6.tsp
DIMENSION: 6
NODE_COORD_SECTION
1 -504.2062415197 -128.4144427002
2 -236.7405978785 13.1836499712
3 4920.6349206349 210.9959700633
4 -356.1234329797 -35.8208955224
5 512.2116689281 -299.3720565149
6 314.9136577708 -6259.4594594595
