Unidireccional6.tour
NAME: Unidireccional6.tour
TYPE: TOUR
DIMENSION: 6
SOLUTION: 6197.119722348278
TOUR_SECTION
1,5,4,6,3,2,1
587.63350261 - 1,5
259.50174775 - 5,4
466.88546833 - 4,6
1940.62114588 - 6,3
1185.55451265 - 3,2
1756.92334513 - 2,1
EOF